104922
0,9,28,63,72,44,45,53,79,61,69,13,66,75,25,35,65,70,19,8,76,16,55,6,50,71,80,59,46,48,33,56,42,2,11,22,54,41,24,68,14,60,5,78,34,29,1,37,15,26,32,10,39,73,57,31,81,74,43,21,67,58,52,7,27,82,77,40,51,38,62,3,49,64,30,23,18,4,47,20,17,36,12,0